sat
(
  (define-fun G () String
    "")
  (define-fun I () String
    "")
  (define-fun Q () String
    "")
  (define-fun F () String
    "")
  (define-fun E () String
    "")
  (define-fun K () String
    "aabaa")
  (define-fun M () String
    "baa")
)
